p cnf 60 127
2 3 -1 0
-2 -3 -1 0
2 -3 1 0
-2 3 1 0
2 5 -4 0
-2 -5 -4 0
2 -5 4 0
-2 5 4 0
3 7 -6 0
-3 -7 -6 0
3 -7 6 0
-3 7 6 0
7 9 -8 0
-7 -9 -8 0
7 -9 8 0
-7 9 8 0
9 11 -10 0
-9 -11 -10 0
9 -11 10 0
-9 11 10 0
11 5 -12 0
-11 -5 -12 0
11 -5 12 0
-11 5 12 0
-2 13 0
-14 0
-15 0
-3 16 0
-13 16 0
-14 17 0
-3 -13 17 0
-15 18 0
-3 -14 18 0
-3 -15 0
-7 19 0
-16 19 0
-17 20 0
-7 -16 20 0
-18 21 0
-7 -17 21 0
-7 -18 0
-9 22 0
-19 22 0
-20 23 0
-9 -19 23 0
-21 24 0
-9 -20 24 0
-9 -21 0
-11 25 0
-22 25 0
-23 26 0
-11 -22 26 0
-24 27 0
-11 -23 27 0
-11 -24 0
-5 28 0
-25 28 0
-26 29 0
-5 -25 29 0
-27 30 0
-5 -26 30 0
-5 -27 0
2 31 0
-32 0
-33 0
3 34 0
-31 34 0
-32 35 0
3 -31 35 0
-33 36 0
3 -32 36 0
3 -33 0
7 37 0
-34 37 0
-35 38 0
7 -34 38 0
-36 39 0
7 -35 39 0
7 -36 0
9 40 0
-37 40 0
-38 41 0
9 -37 41 0
-39 42 0
9 -38 42 0
9 -39 0
11 43 0
-40 43 0
-41 44 0
11 -40 44 0
-42 45 0
11 -41 45 0
11 -42 0
5 46 0
-43 46 0
-44 47 0
5 -43 47 0
-45 48 0
5 -44 48 0
5 -45 0
-1 49 0
-50 0
-4 51 0
-49 51 0
-50 52 0
-4 -49 52 0
-4 -50 0
-6 53 0
-51 53 0
-52 54 0
-6 -51 54 0
-6 -52 0
-8 55 0
-53 55 0
-54 56 0
-8 -53 56 0
-8 -54 0
-10 57 0
-55 57 0
-56 58 0
-10 -55 58 0
-10 -56 0
-12 59 0
-57 59 0
-58 60 0
-12 -57 60 0
-12 -58 0
